solution status: optimal solution found
objective value:                                   10
y_21_11                                             1 	(obj:0)
y_20_12                                             1 	(obj:0)
y_21_12                                             1 	(obj:0)
y_20_13                                             1 	(obj:0)
y_17_13                                             1 	(obj:0)
y_21_13                                             1 	(obj:0)
y_7_14                                              1 	(obj:0)
y_20_14                                             1 	(obj:0)
y_17_14                                             1 	(obj:0)
y_21_14                                             1 	(obj:0)
y_7_15                                              1 	(obj:0)
y_20_15                                             1 	(obj:0)
y_14_15                                             1 	(obj:0)
y_17_15                                             1 	(obj:0)
y_21_15                                             1 	(obj:0)
y_7_16                                              1 	(obj:0)
y_20_16                                             1 	(obj:0)
y_14_16                                             1 	(obj:0)
y_17_16                                             1 	(obj:0)
y_10_16                                             1 	(obj:0)
y_21_16                                             1 	(obj:0)
y_7_17                                              1 	(obj:0)
y_15_17                                             1 	(obj:0)
y_20_17                                             1 	(obj:0)
y_14_17                                             1 	(obj:0)
y_17_17                                             1 	(obj:0)
y_10_17                                             1 	(obj:0)
y_21_17                                             1 	(obj:0)
y_4_18                                              1 	(obj:0)
y_7_18                                              1 	(obj:0)
y_15_18                                             1 	(obj:0)
y_20_18                                             1 	(obj:0)
y_14_18                                             1 	(obj:0)
y_17_18                                             1 	(obj:0)
y_10_18                                             1 	(obj:0)
y_21_18                                             1 	(obj:0)
y_4_19                                              1 	(obj:0)
y_7_19                                              1 	(obj:0)
y_15_19                                             1 	(obj:0)
y_20_19                                             1 	(obj:0)
y_12_19                                             1 	(obj:0)
y_14_19                                             1 	(obj:0)
y_17_19                                             1 	(obj:0)
y_10_19                                             1 	(obj:0)
y_21_19                                             1 	(obj:0)
y_4_20                                              1 	(obj:0)
y_7_20                                              1 	(obj:0)
y_9_20                                              1 	(obj:0)
y_15_20                                             1 	(obj:0)
y_20_20                                             1 	(obj:0)
y_12_20                                             1 	(obj:0)
y_14_20                                             1 	(obj:0)
y_17_20                                             1 	(obj:0)
y_10_20                                             1 	(obj:0)
y_16_20                                             1 	(obj:0)
y_21_20                                             1 	(obj:0)
y_22_20                                             1 	(obj:0)
y_4_21                                              1 	(obj:0)
y_7_21                                              1 	(obj:0)
y_9_21                                              1 	(obj:0)
y_15_21                                             1 	(obj:0)
y_18_21                                             1 	(obj:0)
y_20_21                                             1 	(obj:0)
y_12_21                                             1 	(obj:0)
y_14_21                                             1 	(obj:0)
y_17_21                                             1 	(obj:0)
y_10_21                                             1 	(obj:0)
y_16_21                                             1 	(obj:0)
y_21_21                                             1 	(obj:0)
y_22_21                                             1 	(obj:0)
y_1_22                                              1 	(obj:0)
y_4_22                                              1 	(obj:0)
y_7_22                                              1 	(obj:0)
y_9_22                                              1 	(obj:0)
y_13_22                                             1 	(obj:0)
y_15_22                                             1 	(obj:0)
y_18_22                                             1 	(obj:0)
y_20_22                                             1 	(obj:0)
y_6_22                                              1 	(obj:0)
y_8_22                                              1 	(obj:0)
y_12_22                                             1 	(obj:0)
y_14_22                                             1 	(obj:0)
y_17_22                                             1 	(obj:0)
y_10_22                                             1 	(obj:0)
y_16_22                                             1 	(obj:0)
y_21_22                                             1 	(obj:0)
y_22_22                                             1 	(obj:0)
x_1_1                                               1 	(obj:0)
x_2_10                                              1 	(obj:0)
x_4_3                                               1 	(obj:0)
x_7_13                                              1 	(obj:0)
x_9_18                                              1 	(obj:0)
x_13_21                                             1 	(obj:0)
x_15_15                                             1 	(obj:0)
x_18_20                                             1 	(obj:0)
x_20_4                                              1 	(obj:0)
x_3_8                                               1 	(obj:0)
x_6_16                                              1 	(obj:0)
x_8_19                                              1 	(obj:0)
x_12_11                                             1 	(obj:0)
x_14_5                                              1 	(obj:0)
x_17_12                                             1 	(obj:0)
x_19_22                                             1 	(obj:0)
x_5_7                                               1 	(obj:0)
x_10_14                                             1 	(obj:0)
x_16_17                                             1 	(obj:0)
x_21_9                                              1 	(obj:0)
x_11_6                                              1 	(obj:0)
x_22_0                                              1 	(obj:0)
x_23_2                                              1 	(obj:0)
pw                                                 10 	(obj:1)
